<number of tasks>
50

<cycle time>
1000

<order strength>
0.197


<task times>
1 137
2 182
3 467
4 220
5 113
6 333
7 126
8 575
9 155
10 64
11 201
12 188
13 226
14 576
15 94
16 52
17 497
18 167
19 201
20 215
21 232
22 223
23 164
24 228
25 45
26 103
27 90
28 35
29 286
30 194
31 110
32 180
33 506
34 247
35 107
36 410
37 120
38 50
39 231
40 278
41 278
42 58
43 541
44 399
45 158
46 51
47 563
48 278
49 39
50 71

<precedence relations>
1,9
2,11
3,10
3,13
3,15
3,27
4,12
4,15
4,38
4,44
5,15
5,47
6,14
7,12
7,40
7,41
8,32
8,34
9,17
10,16
11,18
13,19
13,44
14,25
15,45
16,21
17,23
18,20
18,24
18,25
18,26
18,27
19,22
19,33
20,29
21,28
22,31
23,30
24,33
25,34
27,32
28,35
29,37
30,36
31,38
32,38
32,40
32,41
32,46
33,39
33,40
34,40
35,42
36,44
37,43
38,45
39,46
40,47
42,48
43,49
46,50
47,50

<end>
